100
12 0
6 0
16 0
14 3
28 0
25 4
22 3
36 4
27 2
7 1
25 3
27 3
27 0
3 3
7 4
9 0
9 4
14 4
32 4
30 3
34 0
38 0
36 3
34 4
13 2
40 3
18 2
0 3
18 0
11 4
1 0
21 0
30 4
37 2
16 2
24 4
24 0
6 3
37 0
1 4
3 0
20 1
12 1
38 4
25 0
19 1
15 4
13 4
3 4
0 0
11 1
4 0
42 3
20 4
21 4
39 3
32 3
19 0
31 2
24 1
29 3
33 3
5 4
9 3
21 1
30 0
29 4
21 3
29 0
25 2
40 4
33 4
43 0
27 4
32 0
39 0
19 4
13 0
6 1
19 3
33 1
27 1
5 0
40 1
3 2
34 1
23 2
6 4
11 2
22 4
11 0
2 0
37 4
40 0
12 4
18 3
18 1
36 0
16 4
5 1

